(set-info :source |
 Generated by Alive 0.1
 More info in N. P. Lopes, D. Menendez, S. Nagarakatte, J. Regehr.
 Provably Correct Peephole Optimizations with Alive. In PLDI'15.
|)

(set-info :status unknown)
(declare-fun %b () (_ BitVec 35))
(assert
 (let (($x38568 (not (bvult (_ bv1 35) (_ bv35 35)))))
 (let (($x34869 (= (bvadd ((_ sign_extend 1) %b) ((_ sign_extend 1) %b)) ((_ sign_extend 1) (bvadd %b %b)))))
 (and $x34869 $x38568))))
(check-sat)
